100
[10,11,12,13,17,18,19,20,21,24,25,26,27,28,29,31,32,34,35,37,40,41,43,45,47,48,50,51,53,54,55,56,57,58,59,60,61,62,65,68,70,71,72,73,75,76,77,78,79,80]
[1,1,1,2,4,1,2,1,2,3,3,1,1,2,1,1,1,1,2,1,1,2,1,1,3,2,2,1,2,3,1,2,2,2,4,3,2,5,1,1,6,2,1,5,4,2,1,1,2,3]
